nbGenes = 10;
preference = [[0 37 31 9 35 62 99 71 90 50 ]
[63 0 1 5 32 86 74 41 19 30 ]
[69 99 0 89 84 66 57 42 52 20 ]
[91 95 11 0 62 39 54 64 10 68 ]
[65 68 16 38 0 65 21 14 16 74 ]
[38 14 34 61 35 0 53 86 74 84 ]
[1 26 43 46 79 47 0 27 4 18 ]
[29 59 58 36 86 14 73 0 18 54 ]
[10 81 48 90 84 26 96 82 0 3 ]
[50 70 80 32 26 16 82 46 97 0 ]
];
